NAME 
ROWS
 N  OBJ
 L  R0      
 L  R1      
 E  R2      
COLUMNS
    MARKER    'MARKER'                 'INTORG'
    I0(3)     OBJ       -895
    I0(3)     R0        -431
    I0(3)     R1        -541
    I0(3)     R2        665
    I1(3)     OBJ       -629
    I1(3)     R0        -548
    I1(3)     R1        -131
    I1(3)     R2        402
    I2(3)     OBJ       -105
    I2(3)     R0        -16
    I2(3)     R1        -57
    I2(3)     R2        191
    I3(3)     OBJ       -976
    I3(3)     R0        -39
    I3(3)     R1        -964
    I3(3)     R2        769
    I4(3)     OBJ       -672
    I4(3)     R0        -25
    I4(3)     R1        -385
    I4(3)     R2        378
    I5(3)     OBJ       -508
    I5(3)     R0        -922
    I5(3)     R1        -866
    I5(3)     R2        862
    I6(3)     OBJ       -16
    I6(3)     R0        -521
    I6(3)     R1        -379
    I6(3)     R2        277
    I7(3)     OBJ       -216
    I7(3)     R0        -648
    I7(3)     R1        -662
    I7(3)     R2        394
    I8(3)     OBJ       -235
    I8(3)     R0        -92
    I8(3)     R1        -508
    I8(3)     R2        77
    I9(3)     OBJ       -192
    I9(3)     R0        -522
    I9(3)     R1        -562
    I9(3)     R2        512
    I10(1)    R2        1
    MARKER    'MARKER'                 'INTEND'
RHS
    RHS1      R0        -1043
    RHS1      R1        -2021
    RHS1      R2        2263
BOUNDS
 UP BND1      I0(3)     1
 UP BND1      I1(3)     1
 UP BND1      I2(3)     1
 UP BND1      I3(3)     1
 UP BND1      I4(3)     1
 UP BND1      I5(3)     1
 UP BND1      I6(3)     1
 UP BND1      I7(3)     1
 UP BND1      I8(3)     1
 UP BND1      I9(3)     1
 LI BND1      I10(1)    0
ENDATA
